% Generated by MiniZinc 2.9.3
% Solver library: /home/icwmmarijnisse/Pumpkin/minizinc/lib
% Command line invocation: minizinc --compile --fzn ./instance.fzn --ozn ./instance.ozn --solver pumpkin ../../../../benchmarks/models/rcpsp/rcpsp.mzn ../../../../benchmarks/models/rcpsp/J120_35_5.dzn 

predicate pumpkin_cumulative(array [int] of var int: s,array [int] of int: d,array [int] of int: r,int: b);
array [1..2] of int: X_INTRODUCED_139_ = [1,-1];
array [1..91] of int: X_INTRODUCED_256_ = [4,2,3,10,2,9,10,6,10,1,8,10,9,6,1,8,2,9,9,10,7,9,7,10,10,8,3,7,1,2,9,9,6,5,1,5,10,2,10,6,3,2,1,3,3,10,3,9,7,7,8,2,3,8,1,1,9,4,10,8,1,4,10,9,4,10,5,10,6,3,1,9,6,1,2,6,5,6,8,6,2,9,4,10,9,7,6,8,10,6,7];
array [1..91] of int: X_INTRODUCED_257_ = [2,6,10,8,8,5,6,9,9,3,3,4,1,3,4,1,9,2,1,3,9,3,6,10,6,10,1,6,8,4,9,1,2,7,1,4,3,1,3,8,9,6,8,8,7,5,2,7,4,9,8,9,1,8,5,1,5,8,3,2,5,9,4,4,5,2,10,4,7,9,6,6,8,9,4,1,4,3,7,10,4,6,5,3,6,5,4,5,3,7,9];
array [1..92] of int: X_INTRODUCED_259_ = [4,5,9,6,2,7,3,6,10,8,10,1,2,5,3,3,2,9,10,9,7,1,4,5,9,2,2,9,1,3,8,6,6,9,7,7,1,2,2,2,3,5,5,8,10,7,5,7,8,3,2,4,1,6,10,6,1,10,8,2,4,9,8,6,9,1,9,5,10,7,7,8,2,6,8,6,7,6,10,9,8,4,10,10,6,4,10,6,2,1,8,7];
array [1..92] of int: X_INTRODUCED_260_ = [2,5,6,10,8,8,6,9,9,3,4,9,5,3,4,1,2,1,3,3,3,9,3,6,10,6,1,6,8,4,1,9,7,7,1,4,4,1,4,4,8,9,6,8,8,7,4,8,5,2,4,8,9,1,8,1,5,8,3,3,5,9,1,4,4,5,2,10,2,7,8,9,6,8,4,7,10,7,4,1,3,5,3,10,4,9,5,2,3,7,9,2];
array [1..87] of int: X_INTRODUCED_262_ = [9,8,6,10,9,4,6,4,3,7,6,3,2,1,3,2,9,6,8,9,8,8,9,9,7,1,10,10,6,1,2,9,10,2,10,8,2,3,3,3,4,1,10,2,5,5,7,4,7,8,8,7,10,5,3,4,5,4,3,1,8,3,7,10,5,7,6,4,3,10,2,7,1,2,7,5,6,5,4,4,4,8,3,6,3,9,5];
array [1..87] of int: X_INTRODUCED_263_ = [5,6,10,8,8,5,6,7,9,9,9,3,3,4,9,5,3,4,9,2,1,1,3,3,3,9,6,10,6,10,1,6,8,4,1,7,7,1,4,3,1,3,6,8,7,4,8,5,2,7,4,9,1,5,8,3,3,2,5,9,4,10,2,4,6,7,9,4,1,4,3,1,10,4,6,1,3,5,3,6,5,10,4,9,8,3,2];
array [1..90] of int: X_INTRODUCED_265_ = [6,1,7,5,10,8,7,10,5,4,1,8,2,8,9,10,9,10,6,2,7,1,5,5,1,1,7,8,6,8,4,6,9,1,4,4,7,3,4,1,1,8,3,2,7,3,6,10,3,10,7,7,10,10,6,8,10,7,1,1,3,6,5,9,2,5,7,2,4,8,5,6,9,3,4,10,6,2,1,6,7,3,2,7,4,7,2,7,1,8];
array [1..90] of int: X_INTRODUCED_266_ = [2,5,6,10,8,5,9,9,3,1,4,1,9,2,1,3,3,3,6,10,6,10,1,8,4,9,7,1,2,1,4,4,1,4,4,8,6,8,8,7,4,8,7,9,8,9,8,5,1,5,8,3,2,5,1,4,5,2,2,4,7,8,9,6,6,8,7,9,1,4,3,7,1,10,7,4,6,1,3,6,5,10,4,9,5,8,3,7,9,2];
array [1..2] of int: X_INTRODUCED_270_ = [1,-1];
var 0..625: X_INTRODUCED_16_;
var 0..625: X_INTRODUCED_17_;
var 0..625: X_INTRODUCED_18_;
var 0..625: X_INTRODUCED_19_;
var 0..625: X_INTRODUCED_20_;
var 0..625: X_INTRODUCED_21_;
var 0..625: X_INTRODUCED_22_;
var 0..625: X_INTRODUCED_23_;
var 0..625: X_INTRODUCED_24_;
var 0..625: X_INTRODUCED_25_;
var 0..625: X_INTRODUCED_26_;
var 0..625: X_INTRODUCED_27_;
var 0..625: X_INTRODUCED_28_;
var 0..625: X_INTRODUCED_29_;
var 0..625: X_INTRODUCED_30_;
var 0..625: X_INTRODUCED_31_;
var 0..625: X_INTRODUCED_32_;
var 0..625: X_INTRODUCED_33_;
var 0..625: X_INTRODUCED_34_;
var 0..625: X_INTRODUCED_35_;
var 0..625: X_INTRODUCED_36_;
var 0..625: X_INTRODUCED_37_;
var 0..625: X_INTRODUCED_38_;
var 0..625: X_INTRODUCED_39_;
var 0..625: X_INTRODUCED_40_;
var 0..625: X_INTRODUCED_41_;
var 0..625: X_INTRODUCED_42_;
var 0..625: X_INTRODUCED_43_;
var 0..625: X_INTRODUCED_44_;
var 0..625: X_INTRODUCED_45_;
var 0..625: X_INTRODUCED_46_;
var 0..625: X_INTRODUCED_47_;
var 0..625: X_INTRODUCED_48_;
var 0..625: X_INTRODUCED_49_;
var 0..625: X_INTRODUCED_50_;
var 0..625: X_INTRODUCED_51_;
var 0..625: X_INTRODUCED_52_;
var 0..625: X_INTRODUCED_53_;
var 0..625: X_INTRODUCED_54_;
var 0..625: X_INTRODUCED_55_;
var 0..625: X_INTRODUCED_56_;
var 0..625: X_INTRODUCED_57_;
var 0..625: X_INTRODUCED_58_;
var 0..625: X_INTRODUCED_59_;
var 0..625: X_INTRODUCED_60_;
var 0..625: X_INTRODUCED_61_;
var 0..625: X_INTRODUCED_62_;
var 0..625: X_INTRODUCED_63_;
var 0..625: X_INTRODUCED_64_;
var 0..625: X_INTRODUCED_65_;
var 0..625: X_INTRODUCED_66_;
var 0..625: X_INTRODUCED_67_;
var 0..625: X_INTRODUCED_68_;
var 0..625: X_INTRODUCED_69_;
var 0..625: X_INTRODUCED_70_;
var 0..625: X_INTRODUCED_71_;
var 0..625: X_INTRODUCED_72_;
var 0..625: X_INTRODUCED_73_;
var 0..625: X_INTRODUCED_74_;
var 0..625: X_INTRODUCED_75_;
var 0..625: X_INTRODUCED_76_;
var 0..625: X_INTRODUCED_77_;
var 0..625: X_INTRODUCED_78_;
var 0..625: X_INTRODUCED_79_;
var 0..625: X_INTRODUCED_80_;
var 0..625: X_INTRODUCED_81_;
var 0..625: X_INTRODUCED_82_;
var 0..625: X_INTRODUCED_83_;
var 0..625: X_INTRODUCED_84_;
var 0..625: X_INTRODUCED_85_;
var 0..625: X_INTRODUCED_86_;
var 0..625: X_INTRODUCED_87_;
var 0..625: X_INTRODUCED_88_;
var 0..625: X_INTRODUCED_89_;
var 0..625: X_INTRODUCED_90_;
var 0..625: X_INTRODUCED_91_;
var 0..625: X_INTRODUCED_92_;
var 0..625: X_INTRODUCED_93_;
var 0..625: X_INTRODUCED_94_;
var 0..625: X_INTRODUCED_95_;
var 0..625: X_INTRODUCED_96_;
var 0..625: X_INTRODUCED_97_;
var 0..625: X_INTRODUCED_98_;
var 0..625: X_INTRODUCED_99_;
var 0..625: X_INTRODUCED_100_;
var 0..625: X_INTRODUCED_101_;
var 0..625: X_INTRODUCED_102_;
var 0..625: X_INTRODUCED_103_;
var 0..625: X_INTRODUCED_104_;
var 0..625: X_INTRODUCED_105_;
var 0..625: X_INTRODUCED_106_;
var 0..625: X_INTRODUCED_107_;
var 0..625: X_INTRODUCED_108_;
var 0..625: X_INTRODUCED_109_;
var 0..625: X_INTRODUCED_110_;
var 0..625: X_INTRODUCED_111_;
var 0..625: X_INTRODUCED_112_;
var 0..625: X_INTRODUCED_113_;
var 0..625: X_INTRODUCED_114_;
var 0..625: X_INTRODUCED_115_;
var 0..625: X_INTRODUCED_116_;
var 0..625: X_INTRODUCED_117_;
var 0..625: X_INTRODUCED_118_;
var 0..625: X_INTRODUCED_119_;
var 0..625: X_INTRODUCED_120_;
var 0..625: X_INTRODUCED_121_;
var 0..625: X_INTRODUCED_122_;
var 0..625: X_INTRODUCED_123_;
var 0..625: X_INTRODUCED_124_;
var 0..625: X_INTRODUCED_125_;
var 0..625: X_INTRODUCED_126_;
var 0..625: X_INTRODUCED_127_;
var 0..625: X_INTRODUCED_128_;
var 0..625: X_INTRODUCED_129_;
var 0..625: X_INTRODUCED_130_;
var 0..625: X_INTRODUCED_131_;
var 0..625: X_INTRODUCED_132_;
var 0..625: X_INTRODUCED_133_;
var 0..625: X_INTRODUCED_134_;
var 0..625: X_INTRODUCED_135_;
var 0..626: Objective:: output_var;
array [1..120] of var int: Start:: output_array([1..120]) = [X_INTRODUCED_16_,X_INTRODUCED_17_,X_INTRODUCED_18_,X_INTRODUCED_19_,X_INTRODUCED_20_,X_INTRODUCED_21_,X_INTRODUCED_22_,X_INTRODUCED_23_,X_INTRODUCED_24_,X_INTRODUCED_25_,X_INTRODUCED_26_,X_INTRODUCED_27_,X_INTRODUCED_28_,X_INTRODUCED_29_,X_INTRODUCED_30_,X_INTRODUCED_31_,X_INTRODUCED_32_,X_INTRODUCED_33_,X_INTRODUCED_34_,X_INTRODUCED_35_,X_INTRODUCED_36_,X_INTRODUCED_37_,X_INTRODUCED_38_,X_INTRODUCED_39_,X_INTRODUCED_40_,X_INTRODUCED_41_,X_INTRODUCED_42_,X_INTRODUCED_43_,X_INTRODUCED_44_,X_INTRODUCED_45_,X_INTRODUCED_46_,X_INTRODUCED_47_,X_INTRODUCED_48_,X_INTRODUCED_49_,X_INTRODUCED_50_,X_INTRODUCED_51_,X_INTRODUCED_52_,X_INTRODUCED_53_,X_INTRODUCED_54_,X_INTRODUCED_55_,X_INTRODUCED_56_,X_INTRODUCED_57_,X_INTRODUCED_58_,X_INTRODUCED_59_,X_INTRODUCED_60_,X_INTRODUCED_61_,X_INTRODUCED_62_,X_INTRODUCED_63_,X_INTRODUCED_64_,X_INTRODUCED_65_,X_INTRODUCED_66_,X_INTRODUCED_67_,X_INTRODUCED_68_,X_INTRODUCED_69_,X_INTRODUCED_70_,X_INTRODUCED_71_,X_INTRODUCED_72_,X_INTRODUCED_73_,X_INTRODUCED_74_,X_INTRODUCED_75_,X_INTRODUCED_76_,X_INTRODUCED_77_,X_INTRODUCED_78_,X_INTRODUCED_79_,X_INTRODUCED_80_,X_INTRODUCED_81_,X_INTRODUCED_82_,X_INTRODUCED_83_,X_INTRODUCED_84_,X_INTRODUCED_85_,X_INTRODUCED_86_,X_INTRODUCED_87_,X_INTRODUCED_88_,X_INTRODUCED_89_,X_INTRODUCED_90_,X_INTRODUCED_91_,X_INTRODUCED_92_,X_INTRODUCED_93_,X_INTRODUCED_94_,X_INTRODUCED_95_,X_INTRODUCED_96_,X_INTRODUCED_97_,X_INTRODUCED_98_,X_INTRODUCED_99_,X_INTRODUCED_100_,X_INTRODUCED_101_,X_INTRODUCED_102_,X_INTRODUCED_103_,X_INTRODUCED_104_,X_INTRODUCED_105_,X_INTRODUCED_106_,X_INTRODUCED_107_,X_INTRODUCED_108_,X_INTRODUCED_109_,X_INTRODUCED_110_,X_INTRODUCED_111_,X_INTRODUCED_112_,X_INTRODUCED_113_,X_INTRODUCED_114_,X_INTRODUCED_115_,X_INTRODUCED_116_,X_INTRODUCED_117_,X_INTRODUCED_118_,X_INTRODUCED_119_,X_INTRODUCED_120_,X_INTRODUCED_121_,X_INTRODUCED_122_,X_INTRODUCED_123_,X_INTRODUCED_124_,X_INTRODUCED_125_,X_INTRODUCED_126_,X_INTRODUCED_127_,X_INTRODUCED_128_,X_INTRODUCED_129_,X_INTRODUCED_130_,X_INTRODUCED_131_,X_INTRODUCED_132_,X_INTRODUCED_133_,X_INTRODUCED_134_,X_INTRODUCED_135_];
array [1..91] of var int: X_INTRODUCED_258_ ::var_is_introduced  = [X_INTRODUCED_16_,X_INTRODUCED_18_,X_INTRODUCED_19_,X_INTRODUCED_20_,X_INTRODUCED_21_,X_INTRODUCED_22_,X_INTRODUCED_23_,X_INTRODUCED_25_,X_INTRODUCED_26_,X_INTRODUCED_28_,X_INTRODUCED_29_,X_INTRODUCED_30_,X_INTRODUCED_32_,X_INTRODUCED_34_,X_INTRODUCED_35_,X_INTRODUCED_36_,X_INTRODUCED_37_,X_INTRODUCED_38_,X_INTRODUCED_39_,X_INTRODUCED_43_,X_INTRODUCED_44_,X_INTRODUCED_45_,X_INTRODUCED_46_,X_INTRODUCED_47_,X_INTRODUCED_48_,X_INTRODUCED_49_,X_INTRODUCED_50_,X_INTRODUCED_51_,X_INTRODUCED_52_,X_INTRODUCED_53_,X_INTRODUCED_55_,X_INTRODUCED_57_,X_INTRODUCED_58_,X_INTRODUCED_59_,X_INTRODUCED_60_,X_INTRODUCED_62_,X_INTRODUCED_63_,X_INTRODUCED_64_,X_INTRODUCED_66_,X_INTRODUCED_68_,X_INTRODUCED_69_,X_INTRODUCED_70_,X_INTRODUCED_71_,X_INTRODUCED_72_,X_INTRODUCED_73_,X_INTRODUCED_76_,X_INTRODUCED_77_,X_INTRODUCED_78_,X_INTRODUCED_79_,X_INTRODUCED_80_,X_INTRODUCED_81_,X_INTRODUCED_82_,X_INTRODUCED_83_,X_INTRODUCED_84_,X_INTRODUCED_85_,X_INTRODUCED_86_,X_INTRODUCED_87_,X_INTRODUCED_88_,X_INTRODUCED_89_,X_INTRODUCED_91_,X_INTRODUCED_92_,X_INTRODUCED_93_,X_INTRODUCED_95_,X_INTRODUCED_96_,X_INTRODUCED_97_,X_INTRODUCED_98_,X_INTRODUCED_99_,X_INTRODUCED_101_,X_INTRODUCED_102_,X_INTRODUCED_104_,X_INTRODUCED_105_,X_INTRODUCED_106_,X_INTRODUCED_107_,X_INTRODUCED_109_,X_INTRODUCED_110_,X_INTRODUCED_111_,X_INTRODUCED_112_,X_INTRODUCED_113_,X_INTRODUCED_114_,X_INTRODUCED_116_,X_INTRODUCED_118_,X_INTRODUCED_119_,X_INTRODUCED_122_,X_INTRODUCED_123_,X_INTRODUCED_124_,X_INTRODUCED_125_,X_INTRODUCED_127_,X_INTRODUCED_129_,X_INTRODUCED_132_,X_INTRODUCED_133_,X_INTRODUCED_134_];
array [1..92] of var int: X_INTRODUCED_261_ ::var_is_introduced  = [X_INTRODUCED_16_,X_INTRODUCED_17_,X_INTRODUCED_18_,X_INTRODUCED_19_,X_INTRODUCED_20_,X_INTRODUCED_21_,X_INTRODUCED_23_,X_INTRODUCED_25_,X_INTRODUCED_27_,X_INTRODUCED_29_,X_INTRODUCED_30_,X_INTRODUCED_31_,X_INTRODUCED_33_,X_INTRODUCED_34_,X_INTRODUCED_35_,X_INTRODUCED_36_,X_INTRODUCED_38_,X_INTRODUCED_39_,X_INTRODUCED_41_,X_INTRODUCED_42_,X_INTRODUCED_43_,X_INTRODUCED_44_,X_INTRODUCED_45_,X_INTRODUCED_46_,X_INTRODUCED_47_,X_INTRODUCED_48_,X_INTRODUCED_50_,X_INTRODUCED_51_,X_INTRODUCED_52_,X_INTRODUCED_53_,X_INTRODUCED_54_,X_INTRODUCED_55_,X_INTRODUCED_56_,X_INTRODUCED_59_,X_INTRODUCED_60_,X_INTRODUCED_61_,X_INTRODUCED_62_,X_INTRODUCED_64_,X_INTRODUCED_65_,X_INTRODUCED_67_,X_INTRODUCED_68_,X_INTRODUCED_69_,X_INTRODUCED_70_,X_INTRODUCED_71_,X_INTRODUCED_72_,X_INTRODUCED_73_,X_INTRODUCED_74_,X_INTRODUCED_75_,X_INTRODUCED_76_,X_INTRODUCED_77_,X_INTRODUCED_79_,X_INTRODUCED_81_,X_INTRODUCED_82_,X_INTRODUCED_83_,X_INTRODUCED_84_,X_INTRODUCED_86_,X_INTRODUCED_87_,X_INTRODUCED_88_,X_INTRODUCED_89_,X_INTRODUCED_90_,X_INTRODUCED_92_,X_INTRODUCED_93_,X_INTRODUCED_94_,X_INTRODUCED_95_,X_INTRODUCED_96_,X_INTRODUCED_97_,X_INTRODUCED_98_,X_INTRODUCED_99_,X_INTRODUCED_100_,X_INTRODUCED_102_,X_INTRODUCED_103_,X_INTRODUCED_104_,X_INTRODUCED_106_,X_INTRODUCED_107_,X_INTRODUCED_110_,X_INTRODUCED_114_,X_INTRODUCED_116_,X_INTRODUCED_117_,X_INTRODUCED_118_,X_INTRODUCED_120_,X_INTRODUCED_121_,X_INTRODUCED_122_,X_INTRODUCED_123_,X_INTRODUCED_126_,X_INTRODUCED_127_,X_INTRODUCED_128_,X_INTRODUCED_129_,X_INTRODUCED_131_,X_INTRODUCED_132_,X_INTRODUCED_133_,X_INTRODUCED_134_,X_INTRODUCED_135_];
array [1..87] of var int: X_INTRODUCED_264_ ::var_is_introduced  = [X_INTRODUCED_17_,X_INTRODUCED_18_,X_INTRODUCED_19_,X_INTRODUCED_20_,X_INTRODUCED_21_,X_INTRODUCED_22_,X_INTRODUCED_23_,X_INTRODUCED_24_,X_INTRODUCED_25_,X_INTRODUCED_26_,X_INTRODUCED_27_,X_INTRODUCED_28_,X_INTRODUCED_29_,X_INTRODUCED_30_,X_INTRODUCED_31_,X_INTRODUCED_33_,X_INTRODUCED_34_,X_INTRODUCED_35_,X_INTRODUCED_37_,X_INTRODUCED_38_,X_INTRODUCED_39_,X_INTRODUCED_40_,X_INTRODUCED_41_,X_INTRODUCED_42_,X_INTRODUCED_43_,X_INTRODUCED_44_,X_INTRODUCED_46_,X_INTRODUCED_47_,X_INTRODUCED_48_,X_INTRODUCED_49_,X_INTRODUCED_50_,X_INTRODUCED_51_,X_INTRODUCED_52_,X_INTRODUCED_53_,X_INTRODUCED_54_,X_INTRODUCED_56_,X_INTRODUCED_59_,X_INTRODUCED_60_,X_INTRODUCED_62_,X_INTRODUCED_63_,X_INTRODUCED_64_,X_INTRODUCED_66_,X_INTRODUCED_70_,X_INTRODUCED_71_,X_INTRODUCED_73_,X_INTRODUCED_74_,X_INTRODUCED_75_,X_INTRODUCED_76_,X_INTRODUCED_77_,X_INTRODUCED_78_,X_INTRODUCED_79_,X_INTRODUCED_80_,X_INTRODUCED_83_,X_INTRODUCED_87_,X_INTRODUCED_88_,X_INTRODUCED_89_,X_INTRODUCED_90_,X_INTRODUCED_91_,X_INTRODUCED_92_,X_INTRODUCED_93_,X_INTRODUCED_96_,X_INTRODUCED_99_,X_INTRODUCED_100_,X_INTRODUCED_101_,X_INTRODUCED_105_,X_INTRODUCED_108_,X_INTRODUCED_109_,X_INTRODUCED_110_,X_INTRODUCED_111_,X_INTRODUCED_112_,X_INTRODUCED_113_,X_INTRODUCED_115_,X_INTRODUCED_116_,X_INTRODUCED_118_,X_INTRODUCED_119_,X_INTRODUCED_120_,X_INTRODUCED_121_,X_INTRODUCED_122_,X_INTRODUCED_123_,X_INTRODUCED_124_,X_INTRODUCED_125_,X_INTRODUCED_126_,X_INTRODUCED_127_,X_INTRODUCED_128_,X_INTRODUCED_130_,X_INTRODUCED_132_,X_INTRODUCED_135_];
array [1..90] of var int: X_INTRODUCED_267_ ::var_is_introduced  = [X_INTRODUCED_16_,X_INTRODUCED_17_,X_INTRODUCED_18_,X_INTRODUCED_19_,X_INTRODUCED_20_,X_INTRODUCED_22_,X_INTRODUCED_26_,X_INTRODUCED_27_,X_INTRODUCED_28_,X_INTRODUCED_32_,X_INTRODUCED_35_,X_INTRODUCED_36_,X_INTRODUCED_37_,X_INTRODUCED_38_,X_INTRODUCED_40_,X_INTRODUCED_41_,X_INTRODUCED_43_,X_INTRODUCED_45_,X_INTRODUCED_46_,X_INTRODUCED_47_,X_INTRODUCED_48_,X_INTRODUCED_49_,X_INTRODUCED_50_,X_INTRODUCED_52_,X_INTRODUCED_53_,X_INTRODUCED_55_,X_INTRODUCED_56_,X_INTRODUCED_57_,X_INTRODUCED_58_,X_INTRODUCED_60_,X_INTRODUCED_61_,X_INTRODUCED_62_,X_INTRODUCED_64_,X_INTRODUCED_65_,X_INTRODUCED_67_,X_INTRODUCED_68_,X_INTRODUCED_70_,X_INTRODUCED_71_,X_INTRODUCED_72_,X_INTRODUCED_73_,X_INTRODUCED_74_,X_INTRODUCED_75_,X_INTRODUCED_78_,X_INTRODUCED_80_,X_INTRODUCED_81_,X_INTRODUCED_82_,X_INTRODUCED_84_,X_INTRODUCED_85_,X_INTRODUCED_86_,X_INTRODUCED_87_,X_INTRODUCED_88_,X_INTRODUCED_90_,X_INTRODUCED_91_,X_INTRODUCED_92_,X_INTRODUCED_94_,X_INTRODUCED_95_,X_INTRODUCED_97_,X_INTRODUCED_98_,X_INTRODUCED_100_,X_INTRODUCED_101_,X_INTRODUCED_102_,X_INTRODUCED_103_,X_INTRODUCED_104_,X_INTRODUCED_105_,X_INTRODUCED_106_,X_INTRODUCED_107_,X_INTRODUCED_108_,X_INTRODUCED_109_,X_INTRODUCED_111_,X_INTRODUCED_112_,X_INTRODUCED_113_,X_INTRODUCED_114_,X_INTRODUCED_115_,X_INTRODUCED_116_,X_INTRODUCED_117_,X_INTRODUCED_118_,X_INTRODUCED_119_,X_INTRODUCED_120_,X_INTRODUCED_121_,X_INTRODUCED_124_,X_INTRODUCED_125_,X_INTRODUCED_126_,X_INTRODUCED_127_,X_INTRODUCED_128_,X_INTRODUCED_129_,X_INTRODUCED_130_,X_INTRODUCED_132_,X_INTRODUCED_133_,X_INTRODUCED_134_,X_INTRODUCED_135_];
array [1..121] of var int: X_INTRODUCED_273_ ::var_is_introduced  = [X_INTRODUCED_16_,X_INTRODUCED_17_,X_INTRODUCED_18_,X_INTRODUCED_19_,X_INTRODUCED_20_,X_INTRODUCED_21_,X_INTRODUCED_22_,X_INTRODUCED_23_,X_INTRODUCED_24_,X_INTRODUCED_25_,X_INTRODUCED_26_,X_INTRODUCED_27_,X_INTRODUCED_28_,X_INTRODUCED_29_,X_INTRODUCED_30_,X_INTRODUCED_31_,X_INTRODUCED_32_,X_INTRODUCED_33_,X_INTRODUCED_34_,X_INTRODUCED_35_,X_INTRODUCED_36_,X_INTRODUCED_37_,X_INTRODUCED_38_,X_INTRODUCED_39_,X_INTRODUCED_40_,X_INTRODUCED_41_,X_INTRODUCED_42_,X_INTRODUCED_43_,X_INTRODUCED_44_,X_INTRODUCED_45_,X_INTRODUCED_46_,X_INTRODUCED_47_,X_INTRODUCED_48_,X_INTRODUCED_49_,X_INTRODUCED_50_,X_INTRODUCED_51_,X_INTRODUCED_52_,X_INTRODUCED_53_,X_INTRODUCED_54_,X_INTRODUCED_55_,X_INTRODUCED_56_,X_INTRODUCED_57_,X_INTRODUCED_58_,X_INTRODUCED_59_,X_INTRODUCED_60_,X_INTRODUCED_61_,X_INTRODUCED_62_,X_INTRODUCED_63_,X_INTRODUCED_64_,X_INTRODUCED_65_,X_INTRODUCED_66_,X_INTRODUCED_67_,X_INTRODUCED_68_,X_INTRODUCED_69_,X_INTRODUCED_70_,X_INTRODUCED_71_,X_INTRODUCED_72_,X_INTRODUCED_73_,X_INTRODUCED_74_,X_INTRODUCED_75_,X_INTRODUCED_76_,X_INTRODUCED_77_,X_INTRODUCED_78_,X_INTRODUCED_79_,X_INTRODUCED_80_,X_INTRODUCED_81_,X_INTRODUCED_82_,X_INTRODUCED_83_,X_INTRODUCED_84_,X_INTRODUCED_85_,X_INTRODUCED_86_,X_INTRODUCED_87_,X_INTRODUCED_88_,X_INTRODUCED_89_,X_INTRODUCED_90_,X_INTRODUCED_91_,X_INTRODUCED_92_,X_INTRODUCED_93_,X_INTRODUCED_94_,X_INTRODUCED_95_,X_INTRODUCED_96_,X_INTRODUCED_97_,X_INTRODUCED_98_,X_INTRODUCED_99_,X_INTRODUCED_100_,X_INTRODUCED_101_,X_INTRODUCED_102_,X_INTRODUCED_103_,X_INTRODUCED_104_,X_INTRODUCED_105_,X_INTRODUCED_106_,X_INTRODUCED_107_,X_INTRODUCED_108_,X_INTRODUCED_109_,X_INTRODUCED_110_,X_INTRODUCED_111_,X_INTRODUCED_112_,X_INTRODUCED_113_,X_INTRODUCED_114_,X_INTRODUCED_115_,X_INTRODUCED_116_,X_INTRODUCED_117_,X_INTRODUCED_118_,X_INTRODUCED_119_,X_INTRODUCED_120_,X_INTRODUCED_121_,X_INTRODUCED_122_,X_INTRODUCED_123_,X_INTRODUCED_124_,X_INTRODUCED_125_,X_INTRODUCED_126_,X_INTRODUCED_127_,X_INTRODUCED_128_,X_INTRODUCED_129_,X_INTRODUCED_130_,X_INTRODUCED_131_,X_INTRODUCED_132_,X_INTRODUCED_133_,X_INTRODUCED_134_,X_INTRODUCED_135_,Objective];
constraint int_lin_le(X_INTRODUCED_139_,[X_INTRODUCED_16_,X_INTRODUCED_20_],-2);
constraint int_lin_le(X_INTRODUCED_139_,[X_INTRODUCED_16_,X_INTRODUCED_39_],-2);
constraint int_lin_le(X_INTRODUCED_139_,[X_INTRODUCED_16_,X_INTRODUCED_41_],-2);
constraint int_lin_le(X_INTRODUCED_139_,[X_INTRODUCED_17_,X_INTRODUCED_19_],-5);
constraint int_lin_le(X_INTRODUCED_139_,[X_INTRODUCED_17_,X_INTRODUCED_25_],-5);
constraint int_lin_le(X_INTRODUCED_139_,[X_INTRODUCED_17_,X_INTRODUCED_27_],-5);
constraint int_lin_le(X_INTRODUCED_139_,[X_INTRODUCED_18_,X_INTRODUCED_23_],-6);
constraint int_lin_le(X_INTRODUCED_139_,[X_INTRODUCED_18_,X_INTRODUCED_46_],-6);
constraint int_lin_le(X_INTRODUCED_139_,[X_INTRODUCED_18_,X_INTRODUCED_58_],-6);
constraint int_lin_le(X_INTRODUCED_139_,[X_INTRODUCED_19_,X_INTRODUCED_56_],-10);
constraint int_lin_le(X_INTRODUCED_139_,[X_INTRODUCED_19_,X_INTRODUCED_83_],-10);
constraint int_lin_le(X_INTRODUCED_139_,[X_INTRODUCED_19_,X_INTRODUCED_84_],-10);
constraint int_lin_le(X_INTRODUCED_139_,[X_INTRODUCED_20_,X_INTRODUCED_21_],-8);
constraint int_lin_le(X_INTRODUCED_139_,[X_INTRODUCED_20_,X_INTRODUCED_22_],-8);
constraint int_lin_le(X_INTRODUCED_139_,[X_INTRODUCED_20_,X_INTRODUCED_30_],-8);
constraint int_lin_le(X_INTRODUCED_139_,[X_INTRODUCED_21_,X_INTRODUCED_54_],-8);
constraint int_lin_le(X_INTRODUCED_139_,[X_INTRODUCED_21_,X_INTRODUCED_74_],-8);
constraint int_lin_le(X_INTRODUCED_139_,[X_INTRODUCED_21_,X_INTRODUCED_86_],-8);
constraint int_lin_le(X_INTRODUCED_139_,[X_INTRODUCED_22_,X_INTRODUCED_24_],-5);
constraint int_lin_le(X_INTRODUCED_139_,[X_INTRODUCED_22_,X_INTRODUCED_79_],-5);
constraint int_lin_le(X_INTRODUCED_139_,[X_INTRODUCED_23_,X_INTRODUCED_34_],-6);
constraint int_lin_le(X_INTRODUCED_139_,[X_INTRODUCED_23_,X_INTRODUCED_38_],-6);
constraint int_lin_le(X_INTRODUCED_139_,[X_INTRODUCED_23_,X_INTRODUCED_47_],-6);
constraint int_lin_le(X_INTRODUCED_139_,[X_INTRODUCED_24_,X_INTRODUCED_26_],-7);
constraint int_lin_le(X_INTRODUCED_139_,[X_INTRODUCED_24_,X_INTRODUCED_33_],-7);
constraint int_lin_le(X_INTRODUCED_139_,[X_INTRODUCED_24_,X_INTRODUCED_37_],-7);
constraint int_lin_le(X_INTRODUCED_139_,[X_INTRODUCED_25_,X_INTRODUCED_31_],-9);
constraint int_lin_le(X_INTRODUCED_139_,[X_INTRODUCED_25_,X_INTRODUCED_35_],-9);
constraint int_lin_le(X_INTRODUCED_139_,[X_INTRODUCED_25_,X_INTRODUCED_42_],-9);
constraint int_lin_le(X_INTRODUCED_139_,[X_INTRODUCED_26_,X_INTRODUCED_78_],-9);
constraint int_lin_le(X_INTRODUCED_139_,[X_INTRODUCED_27_,X_INTRODUCED_28_],-9);
constraint int_lin_le(X_INTRODUCED_139_,[X_INTRODUCED_27_,X_INTRODUCED_32_],-9);
constraint int_lin_le(X_INTRODUCED_139_,[X_INTRODUCED_27_,X_INTRODUCED_36_],-9);
constraint int_lin_le(X_INTRODUCED_139_,[X_INTRODUCED_28_,X_INTRODUCED_29_],-3);
constraint int_lin_le(X_INTRODUCED_139_,[X_INTRODUCED_28_,X_INTRODUCED_40_],-3);
constraint int_lin_le(X_INTRODUCED_139_,[X_INTRODUCED_28_,X_INTRODUCED_87_],-3);
constraint int_lin_le(X_INTRODUCED_139_,[X_INTRODUCED_29_,X_INTRODUCED_104_],-3);
constraint int_lin_le(X_INTRODUCED_139_,[X_INTRODUCED_30_,X_INTRODUCED_115_],-4);
constraint int_lin_le(X_INTRODUCED_139_,[X_INTRODUCED_31_,X_INTRODUCED_40_],-9);
constraint int_lin_le(X_INTRODUCED_139_,[X_INTRODUCED_31_,X_INTRODUCED_76_],-9);
constraint int_lin_le(X_INTRODUCED_139_,[X_INTRODUCED_31_,X_INTRODUCED_103_],-9);
constraint int_lin_le(X_INTRODUCED_139_,[X_INTRODUCED_32_,X_INTRODUCED_81_],-1);
constraint int_lin_le(X_INTRODUCED_139_,[X_INTRODUCED_33_,X_INTRODUCED_59_],-5);
constraint int_lin_le(X_INTRODUCED_139_,[X_INTRODUCED_33_,X_INTRODUCED_99_],-5);
constraint int_lin_le(X_INTRODUCED_139_,[X_INTRODUCED_33_,X_INTRODUCED_110_],-5);
constraint int_lin_le(X_INTRODUCED_139_,[X_INTRODUCED_34_,X_INTRODUCED_60_],-3);
constraint int_lin_le(X_INTRODUCED_139_,[X_INTRODUCED_34_,X_INTRODUCED_62_],-3);
constraint int_lin_le(X_INTRODUCED_139_,[X_INTRODUCED_35_,X_INTRODUCED_44_],-4);
constraint int_lin_le(X_INTRODUCED_139_,[X_INTRODUCED_35_,X_INTRODUCED_49_],-4);
constraint int_lin_le(X_INTRODUCED_139_,[X_INTRODUCED_35_,X_INTRODUCED_80_],-4);
constraint int_lin_le(X_INTRODUCED_139_,[X_INTRODUCED_36_,X_INTRODUCED_43_],-1);
constraint int_lin_le(X_INTRODUCED_139_,[X_INTRODUCED_36_,X_INTRODUCED_48_],-1);
constraint int_lin_le(X_INTRODUCED_139_,[X_INTRODUCED_36_,X_INTRODUCED_125_],-1);
constraint int_lin_le(X_INTRODUCED_139_,[X_INTRODUCED_37_,X_INTRODUCED_66_],-9);
constraint int_lin_le(X_INTRODUCED_139_,[X_INTRODUCED_37_,X_INTRODUCED_70_],-9);
constraint int_lin_le(X_INTRODUCED_139_,[X_INTRODUCED_37_,X_INTRODUCED_73_],-9);
constraint int_lin_le(X_INTRODUCED_139_,[X_INTRODUCED_38_,X_INTRODUCED_45_],-2);
constraint int_lin_le(X_INTRODUCED_139_,[X_INTRODUCED_38_,X_INTRODUCED_68_],-2);
constraint int_lin_le(X_INTRODUCED_139_,[X_INTRODUCED_39_,X_INTRODUCED_61_],-1);
constraint int_lin_le(X_INTRODUCED_139_,[X_INTRODUCED_39_,X_INTRODUCED_132_],-1);
constraint int_lin_le(X_INTRODUCED_139_,[X_INTRODUCED_40_,X_INTRODUCED_86_],-1);
constraint int_lin_le(X_INTRODUCED_139_,[X_INTRODUCED_41_,X_INTRODUCED_49_],-3);
constraint int_lin_le(X_INTRODUCED_139_,[X_INTRODUCED_42_,X_INTRODUCED_52_],-3);
constraint int_lin_le(X_INTRODUCED_139_,[X_INTRODUCED_42_,X_INTRODUCED_72_],-3);
constraint int_lin_le(X_INTRODUCED_139_,[X_INTRODUCED_43_,X_INTRODUCED_51_],-3);
constraint int_lin_le(X_INTRODUCED_139_,[X_INTRODUCED_43_,X_INTRODUCED_98_],-3);
constraint int_lin_le(X_INTRODUCED_139_,[X_INTRODUCED_44_,X_INTRODUCED_67_],-9);
constraint int_lin_le(X_INTRODUCED_139_,[X_INTRODUCED_45_,X_INTRODUCED_108_],-3);
constraint int_lin_le(X_INTRODUCED_139_,[X_INTRODUCED_46_,X_INTRODUCED_83_],-6);
constraint int_lin_le(X_INTRODUCED_139_,[X_INTRODUCED_47_,X_INTRODUCED_59_],-10);
constraint int_lin_le(X_INTRODUCED_139_,[X_INTRODUCED_47_,X_INTRODUCED_75_],-10);
constraint int_lin_le(X_INTRODUCED_139_,[X_INTRODUCED_47_,X_INTRODUCED_93_],-10);
constraint int_lin_le(X_INTRODUCED_139_,[X_INTRODUCED_48_,X_INTRODUCED_54_],-6);
constraint int_lin_le(X_INTRODUCED_139_,[X_INTRODUCED_48_,X_INTRODUCED_55_],-6);
constraint int_lin_le(X_INTRODUCED_139_,[X_INTRODUCED_49_,X_INTRODUCED_50_],-10);
constraint int_lin_le(X_INTRODUCED_139_,[X_INTRODUCED_49_,X_INTRODUCED_53_],-10);
constraint int_lin_le(X_INTRODUCED_139_,[X_INTRODUCED_49_,X_INTRODUCED_57_],-10);
constraint int_lin_le(X_INTRODUCED_139_,[X_INTRODUCED_50_,X_INTRODUCED_58_],-1);
constraint int_lin_le(X_INTRODUCED_139_,[X_INTRODUCED_50_,X_INTRODUCED_75_],-1);
constraint int_lin_le(X_INTRODUCED_139_,[X_INTRODUCED_50_,X_INTRODUCED_76_],-1);
constraint int_lin_le(X_INTRODUCED_139_,[X_INTRODUCED_51_,X_INTRODUCED_63_],-6);
constraint int_lin_le(X_INTRODUCED_139_,[X_INTRODUCED_51_,X_INTRODUCED_71_],-6);
constraint int_lin_le(X_INTRODUCED_139_,[X_INTRODUCED_52_,X_INTRODUCED_96_],-8);
constraint int_lin_le(X_INTRODUCED_139_,[X_INTRODUCED_52_,X_INTRODUCED_99_],-8);
constraint int_lin_le(X_INTRODUCED_139_,[X_INTRODUCED_53_,X_INTRODUCED_81_],-4);
constraint int_lin_le(X_INTRODUCED_139_,[X_INTRODUCED_54_,X_INTRODUCED_67_],-1);
constraint int_lin_le(X_INTRODUCED_139_,[X_INTRODUCED_54_,X_INTRODUCED_87_],-1);
constraint int_lin_le(X_INTRODUCED_139_,[X_INTRODUCED_55_,X_INTRODUCED_69_],-9);
constraint int_lin_le(X_INTRODUCED_139_,[X_INTRODUCED_55_,X_INTRODUCED_85_],-9);
constraint int_lin_le(X_INTRODUCED_139_,[X_INTRODUCED_55_,X_INTRODUCED_90_],-9);
constraint int_lin_le(X_INTRODUCED_139_,[X_INTRODUCED_56_,X_INTRODUCED_64_],-7);
constraint int_lin_le(X_INTRODUCED_139_,[X_INTRODUCED_56_,X_INTRODUCED_65_],-7);
constraint int_lin_le(X_INTRODUCED_139_,[X_INTRODUCED_56_,X_INTRODUCED_77_],-7);
constraint int_lin_le(X_INTRODUCED_139_,[X_INTRODUCED_57_,X_INTRODUCED_91_],-1);
constraint int_lin_le(X_INTRODUCED_139_,[X_INTRODUCED_57_,X_INTRODUCED_107_],-1);
constraint int_lin_le(X_INTRODUCED_139_,[X_INTRODUCED_57_,X_INTRODUCED_129_],-1);
constraint int_lin_le(X_INTRODUCED_139_,[X_INTRODUCED_58_,X_INTRODUCED_94_],-2);
constraint int_lin_le(X_INTRODUCED_139_,[X_INTRODUCED_59_,X_INTRODUCED_133_],-7);
constraint int_lin_le(X_INTRODUCED_139_,[X_INTRODUCED_60_,X_INTRODUCED_74_],-1);
constraint int_lin_le(X_INTRODUCED_139_,[X_INTRODUCED_61_,X_INTRODUCED_89_],-4);
constraint int_lin_le(X_INTRODUCED_139_,[X_INTRODUCED_61_,X_INTRODUCED_117_],-4);
constraint int_lin_le(X_INTRODUCED_139_,[X_INTRODUCED_62_,X_INTRODUCED_76_],-4);
constraint int_lin_le(X_INTRODUCED_139_,[X_INTRODUCED_62_,X_INTRODUCED_106_],-4);
constraint int_lin_le(X_INTRODUCED_139_,[X_INTRODUCED_63_,X_INTRODUCED_84_],-3);
constraint int_lin_le(X_INTRODUCED_139_,[X_INTRODUCED_63_,X_INTRODUCED_112_],-3);
constraint int_lin_le(X_INTRODUCED_139_,[X_INTRODUCED_64_,X_INTRODUCED_94_],-1);
constraint int_lin_le(X_INTRODUCED_139_,[X_INTRODUCED_65_,X_INTRODUCED_125_],-4);
constraint int_lin_le(X_INTRODUCED_139_,[X_INTRODUCED_66_,X_INTRODUCED_69_],-3);
constraint int_lin_le(X_INTRODUCED_139_,[X_INTRODUCED_67_,X_INTRODUCED_68_],-4);
constraint int_lin_le(X_INTRODUCED_139_,[X_INTRODUCED_67_,X_INTRODUCED_78_],-4);
constraint int_lin_le(X_INTRODUCED_139_,[X_INTRODUCED_68_,X_INTRODUCED_79_],-8);
constraint int_lin_le(X_INTRODUCED_139_,[X_INTRODUCED_68_,X_INTRODUCED_111_],-8);
constraint int_lin_le(X_INTRODUCED_139_,[X_INTRODUCED_69_,X_INTRODUCED_86_],-9);
constraint int_lin_le(X_INTRODUCED_139_,[X_INTRODUCED_69_,X_INTRODUCED_128_],-9);
constraint int_lin_le(X_INTRODUCED_139_,[X_INTRODUCED_70_,X_INTRODUCED_84_],-6);
constraint int_lin_le(X_INTRODUCED_139_,[X_INTRODUCED_70_,X_INTRODUCED_105_],-6);
constraint int_lin_le(X_INTRODUCED_139_,[X_INTRODUCED_71_,X_INTRODUCED_120_],-8);
constraint int_lin_le(X_INTRODUCED_139_,[X_INTRODUCED_72_,X_INTRODUCED_116_],-8);
constraint int_lin_le(X_INTRODUCED_139_,[X_INTRODUCED_72_,X_INTRODUCED_117_],-8);
constraint int_lin_le(X_INTRODUCED_139_,[X_INTRODUCED_73_,X_INTRODUCED_111_],-7);
constraint int_lin_le(X_INTRODUCED_139_,[X_INTRODUCED_74_,X_INTRODUCED_131_],-4);
constraint int_lin_le(X_INTRODUCED_139_,[X_INTRODUCED_75_,X_INTRODUCED_105_],-8);
constraint int_lin_le(X_INTRODUCED_139_,[X_INTRODUCED_75_,X_INTRODUCED_119_],-8);
constraint int_lin_le(X_INTRODUCED_139_,[X_INTRODUCED_76_,X_INTRODUCED_96_],-5);
constraint int_lin_le(X_INTRODUCED_139_,[X_INTRODUCED_76_,X_INTRODUCED_105_],-5);
constraint int_lin_le(X_INTRODUCED_139_,[X_INTRODUCED_77_,X_INTRODUCED_78_],-2);
constraint int_lin_le(X_INTRODUCED_139_,[X_INTRODUCED_77_,X_INTRODUCED_96_],-2);
constraint int_lin_le(X_INTRODUCED_139_,[X_INTRODUCED_78_,X_INTRODUCED_120_],-7);
constraint int_lin_le(X_INTRODUCED_139_,[X_INTRODUCED_79_,X_INTRODUCED_98_],-4);
constraint int_lin_le(X_INTRODUCED_139_,[X_INTRODUCED_80_,X_INTRODUCED_82_],-9);
constraint int_lin_le(X_INTRODUCED_139_,[X_INTRODUCED_80_,X_INTRODUCED_100_],-9);
constraint int_lin_le(X_INTRODUCED_139_,[X_INTRODUCED_80_,X_INTRODUCED_110_],-9);
constraint int_lin_le(X_INTRODUCED_139_,[X_INTRODUCED_81_,X_INTRODUCED_88_],-8);
constraint int_lin_le(X_INTRODUCED_139_,[X_INTRODUCED_82_,X_INTRODUCED_95_],-9);
constraint int_lin_le(X_INTRODUCED_139_,[X_INTRODUCED_83_,X_INTRODUCED_91_],-1);
constraint int_lin_le(X_INTRODUCED_139_,[X_INTRODUCED_83_,X_INTRODUCED_120_],-1);
constraint int_lin_le(X_INTRODUCED_139_,[X_INTRODUCED_84_,X_INTRODUCED_87_],-8);
constraint int_lin_le(X_INTRODUCED_139_,[X_INTRODUCED_84_,X_INTRODUCED_118_],-8);
constraint int_lin_le(X_INTRODUCED_139_,[X_INTRODUCED_85_,X_INTRODUCED_91_],-5);
constraint int_lin_le(X_INTRODUCED_139_,[X_INTRODUCED_85_,X_INTRODUCED_111_],-5);
constraint int_lin_le(X_INTRODUCED_139_,[X_INTRODUCED_86_,X_INTRODUCED_92_],-1);
constraint int_lin_le(X_INTRODUCED_139_,[X_INTRODUCED_86_,X_INTRODUCED_102_],-1);
constraint int_lin_le(X_INTRODUCED_139_,[X_INTRODUCED_87_,X_INTRODUCED_134_],-5);
constraint int_lin_le(X_INTRODUCED_139_,[X_INTRODUCED_88_,X_INTRODUCED_89_],-8);
constraint int_lin_le(X_INTRODUCED_139_,[X_INTRODUCED_88_,X_INTRODUCED_107_],-8);
constraint int_lin_le(X_INTRODUCED_139_,[X_INTRODUCED_89_,X_INTRODUCED_129_],-3);
constraint int_lin_le(X_INTRODUCED_139_,[X_INTRODUCED_90_,X_INTRODUCED_103_],-3);
constraint int_lin_le(X_INTRODUCED_139_,[X_INTRODUCED_91_,X_INTRODUCED_93_],-2);
constraint int_lin_le(X_INTRODUCED_139_,[X_INTRODUCED_91_,X_INTRODUCED_127_],-2);
constraint int_lin_le(X_INTRODUCED_139_,[X_INTRODUCED_92_,X_INTRODUCED_114_],-5);
constraint int_lin_le(X_INTRODUCED_139_,[X_INTRODUCED_92_,X_INTRODUCED_116_],-5);
constraint int_lin_le(X_INTRODUCED_139_,[X_INTRODUCED_92_,X_INTRODUCED_117_],-5);
constraint int_lin_le(X_INTRODUCED_139_,[X_INTRODUCED_93_,X_INTRODUCED_97_],-9);
constraint int_lin_le(X_INTRODUCED_139_,[X_INTRODUCED_93_,X_INTRODUCED_101_],-9);
constraint int_lin_le(X_INTRODUCED_139_,[X_INTRODUCED_94_,X_INTRODUCED_123_],-1);
constraint int_lin_le(X_INTRODUCED_139_,[X_INTRODUCED_95_,X_INTRODUCED_101_],-4);
constraint int_lin_le(X_INTRODUCED_139_,[X_INTRODUCED_95_,X_INTRODUCED_122_],-4);
constraint int_lin_le(X_INTRODUCED_139_,[X_INTRODUCED_95_,X_INTRODUCED_125_],-4);
constraint int_lin_le(X_INTRODUCED_139_,[X_INTRODUCED_96_,X_INTRODUCED_98_],-4);
constraint int_lin_le(X_INTRODUCED_139_,[X_INTRODUCED_97_,X_INTRODUCED_104_],-5);
constraint int_lin_le(X_INTRODUCED_139_,[X_INTRODUCED_98_,X_INTRODUCED_109_],-2);
constraint int_lin_le(X_INTRODUCED_139_,[X_INTRODUCED_98_,X_INTRODUCED_114_],-2);
constraint int_lin_le(X_INTRODUCED_139_,[X_INTRODUCED_98_,X_INTRODUCED_121_],-2);
constraint int_lin_le(X_INTRODUCED_139_,[X_INTRODUCED_99_,X_INTRODUCED_104_],-10);
constraint int_lin_le(X_INTRODUCED_139_,[X_INTRODUCED_99_,X_INTRODUCED_135_],-10);
constraint int_lin_le(X_INTRODUCED_139_,[X_INTRODUCED_100_,X_INTRODUCED_102_],-2);
constraint int_lin_le(X_INTRODUCED_139_,[X_INTRODUCED_100_,X_INTRODUCED_106_],-2);
constraint int_lin_le(X_INTRODUCED_139_,[X_INTRODUCED_100_,X_INTRODUCED_108_],-2);
constraint int_lin_le(X_INTRODUCED_139_,[X_INTRODUCED_101_,X_INTRODUCED_106_],-4);
constraint int_lin_le(X_INTRODUCED_139_,[X_INTRODUCED_102_,X_INTRODUCED_112_],-7);
constraint int_lin_le(X_INTRODUCED_139_,[X_INTRODUCED_102_,X_INTRODUCED_119_],-7);
constraint int_lin_le(X_INTRODUCED_139_,[X_INTRODUCED_103_,X_INTRODUCED_107_],-8);
constraint int_lin_le(X_INTRODUCED_139_,[X_INTRODUCED_103_,X_INTRODUCED_115_],-8);
constraint int_lin_le(X_INTRODUCED_139_,[X_INTRODUCED_104_,X_INTRODUCED_108_],-9);
constraint int_lin_le(X_INTRODUCED_139_,[X_INTRODUCED_104_,X_INTRODUCED_113_],-9);
constraint int_lin_le(X_INTRODUCED_139_,[X_INTRODUCED_105_,X_INTRODUCED_114_],-6);
constraint int_lin_le(X_INTRODUCED_139_,[X_INTRODUCED_105_,X_INTRODUCED_118_],-6);
constraint int_lin_le(X_INTRODUCED_139_,[X_INTRODUCED_105_,X_INTRODUCED_128_],-6);
constraint int_lin_le(X_INTRODUCED_139_,[X_INTRODUCED_106_,X_INTRODUCED_131_],-6);
constraint int_lin_le(X_INTRODUCED_139_,[X_INTRODUCED_107_,X_INTRODUCED_119_],-8);
constraint int_lin_le(X_INTRODUCED_139_,[X_INTRODUCED_107_,X_INTRODUCED_124_],-8);
constraint int_lin_le(X_INTRODUCED_139_,[X_INTRODUCED_108_,X_INTRODUCED_126_],-7);
constraint int_lin_le(X_INTRODUCED_139_,[X_INTRODUCED_109_,X_INTRODUCED_110_],-9);
constraint int_lin_le(X_INTRODUCED_139_,[X_INTRODUCED_109_,X_INTRODUCED_116_],-9);
constraint int_lin_le(X_INTRODUCED_139_,[X_INTRODUCED_109_,X_INTRODUCED_122_],-9);
constraint int_lin_le(X_INTRODUCED_139_,[X_INTRODUCED_110_,X_INTRODUCED_113_],-4);
constraint int_lin_le(X_INTRODUCED_139_,[X_INTRODUCED_110_,X_INTRODUCED_130_],-4);
constraint int_lin_le(X_INTRODUCED_139_,[X_INTRODUCED_111_,X_INTRODUCED_112_],-1);
constraint int_lin_le(X_INTRODUCED_139_,[X_INTRODUCED_111_,X_INTRODUCED_124_],-1);
constraint int_lin_le(X_INTRODUCED_139_,[X_INTRODUCED_112_,X_INTRODUCED_115_],-4);
constraint int_lin_le(X_INTRODUCED_139_,[X_INTRODUCED_113_,X_INTRODUCED_126_],-3);
constraint int_lin_le(X_INTRODUCED_139_,[X_INTRODUCED_114_,X_INTRODUCED_134_],-7);
constraint int_lin_le(X_INTRODUCED_139_,[X_INTRODUCED_115_,X_INTRODUCED_121_],-1);
constraint int_lin_le(X_INTRODUCED_139_,[X_INTRODUCED_115_,X_INTRODUCED_129_],-1);
constraint int_lin_le(X_INTRODUCED_139_,[X_INTRODUCED_116_,X_INTRODUCED_118_],-10);
constraint int_lin_le(X_INTRODUCED_139_,[X_INTRODUCED_117_,X_INTRODUCED_124_],-7);
constraint int_lin_le(X_INTRODUCED_139_,[X_INTRODUCED_118_,X_INTRODUCED_123_],-4);
constraint int_lin_le(X_INTRODUCED_139_,[X_INTRODUCED_119_,X_INTRODUCED_121_],-6);
constraint int_lin_le(X_INTRODUCED_139_,[X_INTRODUCED_120_,X_INTRODUCED_128_],-1);
constraint int_lin_le(X_INTRODUCED_139_,[X_INTRODUCED_120_,X_INTRODUCED_131_],-1);
constraint int_lin_le(X_INTRODUCED_139_,[X_INTRODUCED_121_,X_INTRODUCED_122_],-3);
constraint int_lin_le(X_INTRODUCED_139_,[X_INTRODUCED_121_,X_INTRODUCED_123_],-3);
constraint int_lin_le(X_INTRODUCED_139_,[X_INTRODUCED_122_,X_INTRODUCED_126_],-5);
constraint int_lin_le(X_INTRODUCED_139_,[X_INTRODUCED_123_,X_INTRODUCED_127_],-3);
constraint int_lin_le(X_INTRODUCED_139_,[X_INTRODUCED_124_,X_INTRODUCED_127_],-6);
constraint int_lin_le(X_INTRODUCED_139_,[X_INTRODUCED_124_,X_INTRODUCED_133_],-6);
constraint int_lin_le(X_INTRODUCED_139_,[X_INTRODUCED_125_,X_INTRODUCED_133_],-5);
constraint int_lin_le(X_INTRODUCED_139_,[X_INTRODUCED_126_,X_INTRODUCED_132_],-10);
constraint int_lin_le(X_INTRODUCED_139_,[X_INTRODUCED_127_,X_INTRODUCED_130_],-4);
constraint int_lin_le(X_INTRODUCED_139_,[X_INTRODUCED_128_,X_INTRODUCED_135_],-9);
constraint int_lin_le(X_INTRODUCED_139_,[X_INTRODUCED_129_,X_INTRODUCED_130_],-5);
constraint int_lin_le(X_INTRODUCED_139_,[X_INTRODUCED_130_,X_INTRODUCED_135_],-8);
constraint int_lin_le(X_INTRODUCED_139_,[X_INTRODUCED_131_,X_INTRODUCED_132_],-2);
constraint int_lin_le(X_INTRODUCED_139_,[X_INTRODUCED_132_,X_INTRODUCED_134_],-3);
constraint pumpkin_cumulative(X_INTRODUCED_258_,X_INTRODUCED_257_,X_INTRODUCED_256_,38);
constraint pumpkin_cumulative(X_INTRODUCED_261_,X_INTRODUCED_260_,X_INTRODUCED_259_,38);
constraint pumpkin_cumulative(X_INTRODUCED_264_,X_INTRODUCED_263_,X_INTRODUCED_262_,46);
constraint pumpkin_cumulative(X_INTRODUCED_267_,X_INTRODUCED_266_,X_INTRODUCED_265_,32);
constraint int_lin_le(X_INTRODUCED_270_,[X_INTRODUCED_133_,Objective],-7);
constraint int_lin_le(X_INTRODUCED_270_,[X_INTRODUCED_134_,Objective],-9);
constraint int_lin_le(X_INTRODUCED_270_,[X_INTRODUCED_135_,Objective],-2);
solve :: int_search(X_INTRODUCED_273_,smallest,indomain_min,complete) minimize Objective;
